p cnf 7230 16
1089 -1091 0
-857 -1097 1098 0
-859 -1094 1095 0
857 -1099 0
859 -1096 0
-887 -1089 1090 0
1089 -1093 0
-855 -1089 1092 0
-1098 1099 0
-1095 1096 0
-1090 1091 0
1097 -1099 0
1094 -1096 0
-1092 1093 0
855 -1093 0
887 -1091 0
